sat
(:eliminated-applications 2
 :eliminated-vars         1
 :max-memory              18.25
 :memory                  18.15
 :nlsat-propagations      5
 :nlsat-stages            3
 :num-allocs              43826
 :rlimit-count            9688
 :time                    0.01
 :total-time              0.02)
